21

C      1.132166     0.596568     0.850900
C     -0.596568     1.132166    -0.850900
C     -1.132166    -0.596568     0.850900
C      0.596568    -1.132166    -0.850900
C      0.000000     0.000000     0.000000
N      2.692060    -0.154770     2.489720
N      0.154770     2.692060    -2.489720
N     -2.692060     0.154770     2.489720
N     -0.154770    -2.692060    -2.489720
O      1.508304    -0.453054     1.796270
O      0.453054     1.508304    -1.796270
O     -1.508304     0.453054     1.796270
O     -0.453054    -1.508304    -1.796270
O      2.962204    -0.984900     3.317170
O      0.984900     2.962204    -3.317170
O     -2.962204     0.984900     3.317170
O     -0.984900    -2.962204    -3.317170
O      3.283000     0.869526     2.170800
O     -0.869526     3.283000    -2.170800
O     -3.283000    -0.869526     2.170800
O      0.869526    -3.283000    -2.170800
